51
30 31 85 90 108 141 152 154 158 159 168 171 223 284 337 345 355 360 371 446 449 455 465 484 566 593 605 641 642 648 655 691 747 750 820 822 824 827 866 868 870 895 902 909 910 913 956 960 966 977 979 